
Log started (V11.0.0) Sun Apr 13 14:08:32 2008

Tried aggregator 1 time.
Reduced MIP has 250 rows, 10001 columns, and 20050 nonzeros.
Presolve time =    0.08 sec.
Clique table members: 200.
MIP emphasis: balance optimality and feasibility.
MIP search method: dynamic search.
Parallel mode: none, using 1 thread.
Root relaxation solution time =    0.30 sec.

        Nodes                                         Cuts/
   Node  Left     Objective  IInf  Best Integer     Best Node    ItCnt     Gap

*     0+    0                        10437.0000       10.8376     1058   99.90%
*     0+    0                           18.0000       10.8376     1058   39.79%
      0     0       11.0000    78       18.0000      Fract: 5     1080   38.89%
*     0+    0                           17.0000       11.0000     1080   35.29%
      0     0       11.0000    82       17.0000       Cuts: 3     1138   35.29%
*     0+    0                           16.0000       11.0000     1138   31.25%
      0     0       11.0518    96       16.0000       Cuts: 2     1183   30.93%
*     0+    0                           15.0000       11.0518     1183   26.32%
      0     0       11.3167   154       15.0000      Cuts: 42     1285   24.56%
*     0+    0                           14.0000       11.3167     1285   19.17%
      0     0       11.4589   161       14.0000      Cuts: 34     1368   18.15%
      0     0       11.4947   187       14.0000      Cuts: 27     1446   17.89%
      0     0       11.5321   188       14.0000      Cuts: 23     1549   17.63%
      0     0       11.5406   200       14.0000      Cuts: 15     1594   17.57%
      0     0       11.5465   203       14.0000      Cuts: 16     1632   17.53%
      0     0       11.5575   210       14.0000      Cuts: 14     1690   17.45%
      0     0       11.5600   216       14.0000      Cuts: 13     1717   17.43%
      0     0       11.5608   212       14.0000       Cuts: 9     1743   17.42%
*     0+    0                           13.0000       11.5608     1743   11.07%

Repeating presolve.
Tried aggregator 1 time.
MIP Presolve eliminated 2 rows and 8884 columns.
MIP Presolve modified 21 coefficients.
Aggregator did 8 substitutions.
Reduced MIP has 240 rows, 1109 columns, and 2218 nonzeros.
Tried aggregator 1 time.
Represolve time =    0.08 sec.
Clique table members: 651.
MIP emphasis: balance optimality and feasibility.
MIP search method: dynamic search.
Parallel mode: none, using 1 thread.
Root relaxation solution time =    0.03 sec.

        Nodes                                         Cuts/
   Node  Left     Objective  IInf  Best Integer     Best Node    ItCnt     Gap

      0     0       12.0000   108       13.0000       12.0000      348    7.69%
      0     2       12.0000   108       13.0000       12.0000      348    7.69%
    100    68       12.0000   120       13.0000       12.0000     7631    7.69%
    200   112       12.0000    70       13.0000       12.0000    24652    7.69%
*   275     0      integral     0       12.0000       12.0000    39757    0.00%

Cover cuts applied:  336
Mixed integer rounding cuts applied:  82
Zero-half cuts applied:  6
Gomory fractional cuts applied:  2

Solution pool: 8 solutions saved.

MIP - Integer optimal solution:  Objective = 1.2000000000e+001
Solution time =    9.81 sec.  Iterations = 39757  Nodes = 276


Incumbent solution
Variable Name           Solution Value
Cmax                         12.000000
X_1_14                        1.000000
X_2_45                        1.000000
X_3_35                        1.000000
X_4_22                        1.000000
X_5_28                        1.000000
X_6_5                         1.000000
X_7_16                        1.000000
X_8_49                        1.000000
X_9_19                        1.000000
X_10_35                       1.000000
X_11_21                       1.000000
X_12_38                       1.000000
X_13_2                        1.000000
X_14_45                       1.000000
X_15_37                       1.000000
X_16_46                       1.000000
X_17_19                       1.000000
X_18_26                       1.000000
X_19_18                       1.000000
X_20_34                       1.000000
X_21_27                       1.000000
X_22_49                       1.000000
X_23_11                       1.000000
X_24_10                       1.000000
X_25_49                       1.000000
X_26_26                       1.000000
X_27_31                       1.000000
X_28_40                       1.000000
X_29_16                       1.000000
X_30_38                       1.000000
X_31_5                        1.000000
X_32_37                       1.000000
X_33_2                        1.000000
X_34_41                       1.000000
X_35_15                       1.000000
X_36_49                       1.000000
X_37_33                       1.000000
X_38_11                       1.000000
X_39_13                       1.000000
X_40_7                        1.000000
X_41_22                       1.000000
X_42_44                       1.000000
X_43_12                       1.000000
X_44_4                        1.000000
X_45_46                       1.000000
X_46_36                       1.000000
X_47_27                       1.000000
X_48_27                       1.000000
X_49_2                        1.000000
X_50_43                       1.000000
X_51_42                       1.000000
X_52_1                        1.000000
X_53_50                       1.000000
X_54_49                       1.000000
X_55_13                       1.000000
X_56_36                       1.000000
X_57_9                        1.000000
X_58_44                       1.000000
X_59_7                        1.000000
X_60_41                       1.000000
X_61_10                       1.000000
X_62_7                        1.000000
X_63_44                       1.000000
X_64_18                       1.000000
X_65_47                       1.000000
X_66_47                       1.000000
X_67_3                        1.000000
X_68_7                        1.000000
X_69_9                        1.000000
X_70_27                       1.000000
X_71_23                       1.000000
X_72_47                       1.000000
X_73_30                       1.000000
X_74_39                       1.000000
X_75_15                       1.000000
X_76_15                       1.000000
X_77_3                        1.000000
X_78_1                        1.000000
X_79_25                       1.000000
X_80_6                        1.000000
X_81_24                       1.000000
X_82_11                       1.000000
X_83_29                       1.000000
X_84_13                       1.000000
X_85_23                       1.000000
X_86_18                       1.000000
X_87_12                       1.000000
X_88_33                       1.000000
X_89_4                        1.000000
X_90_3                        1.000000
X_91_17                       1.000000
X_92_8                        1.000000
X_93_14                       1.000000
X_94_35                       1.000000
X_95_45                       1.000000
X_96_17                       1.000000
X_97_15                       1.000000
X_98_12                       1.000000
X_99_41                       1.000000
X_100_9                       1.000000
X_101_8                       1.000000
X_102_47                      1.000000
X_103_40                      1.000000
X_104_3                       1.000000
X_105_23                      1.000000
X_106_28                      1.000000
X_107_31                      1.000000
X_108_20                      1.000000
X_109_41                      1.000000
X_110_35                      1.000000
X_111_4                       1.000000
X_112_34                      1.000000
X_113_35                      1.000000
X_114_18                      1.000000
X_115_8                       1.000000
X_116_35                      1.000000
X_117_21                      1.000000
X_118_28                      1.000000
X_119_22                      1.000000
X_120_7                       1.000000
X_121_50                      1.000000
X_122_2                       1.000000
X_123_13                      1.000000
X_124_25                      1.000000
X_125_33                      1.000000
X_126_46                      1.000000
X_127_43                      1.000000
X_128_5                       1.000000
X_129_42                      1.000000
X_130_20                      1.000000
X_131_1                       1.000000
X_132_16                      1.000000
X_133_49                      1.000000
X_134_45                      1.000000
X_135_5                       1.000000
X_136_27                      1.000000
X_137_1                       1.000000
X_138_39                      1.000000
X_139_27                      1.000000
X_140_50                      1.000000
X_141_45                      1.000000
X_142_41                      1.000000
X_143_50                      1.000000
X_144_21                      1.000000
X_145_46                      1.000000
X_146_46                      1.000000
X_147_17                      1.000000
X_148_43                      1.000000
X_149_39                      1.000000
X_150_25                      1.000000
X_151_31                      1.000000
X_152_23                      1.000000
X_153_42                      1.000000
X_154_31                      1.000000
X_155_40                      1.000000
X_156_26                      1.000000
X_157_16                      1.000000
X_158_18                      1.000000
X_159_20                      1.000000
X_160_48                      1.000000
X_161_35                      1.000000
X_162_30                      1.000000
X_163_32                      1.000000
X_164_19                      1.000000
X_165_1                       1.000000
X_166_30                      1.000000
X_167_13                      1.000000
X_168_36                      1.000000
X_169_4                       1.000000
X_170_17                      1.000000
X_171_7                       1.000000
X_172_34                      1.000000
X_173_6                       1.000000
X_174_43                      1.000000
X_175_4                       1.000000
X_176_21                      1.000000
X_177_33                      1.000000
X_178_48                      1.000000
X_179_40                      1.000000
X_180_29                      1.000000
X_181_11                      1.000000
X_182_32                      1.000000
X_183_28                      1.000000
X_184_31                      1.000000
X_185_37                      1.000000
X_186_6                       1.000000
X_187_46                      1.000000
X_188_46                      1.000000
X_189_41                      1.000000
X_190_20                      1.000000
X_191_8                       1.000000
X_192_6                       1.000000
X_193_9                       1.000000
X_194_12                      1.000000
X_195_37                      1.000000
X_196_13                      1.000000
X_197_38                      1.000000
X_198_32                      1.000000
X_199_29                      1.000000
X_200_10                      1.000000
All other variables in the range 1-10001 are 0.
